% Auto-generated by scripts/generate_dzn.py
% problem_type   = regex
% instance       = regex_89
% source_json    = instances_json/1_medium_blowup/regex_89.json
% blowup         = 5.5
% representation = NFA

mode = 1;

var_count = 18;
n_constraints = 2;
Q = 13;
S = 3;
q0 = [1, 1];
F = [{13}, {13}];
weights = [6, 10, 1, 4, 5, 5, 9, 8, 5, 10, 1, 5, 4, 3, 8, 3, 8, 1];
d_dfa = array3d(1..2, 1..13, 1..3, [
  % k = 1
    0, 0, 0,
    0, 0, 0,
    0, 0, 0,
    0, 0, 0,
    0, 0, 0,
    0, 0, 0,
    0, 0, 0,
    0, 0, 0,
    0, 0, 0,
    0, 0, 0,
    0, 0, 0,
    0, 0, 0,
    0, 0, 0,

  % k = 2
    0, 0, 0,
    0, 0, 0,
    0, 0, 0,
    0, 0, 0,
    0, 0, 0,
    0, 0, 0,
    0, 0, 0,
    0, 0, 0,
    0, 0, 0,
    0, 0, 0,
    0, 0, 0,
    0, 0, 0,
    0, 0, 0
]);
d_nfa = array3d(1..2, 1..13, 1..3, [
  % k = 1
    {1}, {1, 2}, {1},
    {3}, {}, {},
    {4}, {}, {},
    {5}, {5}, {5},
    {6}, {6}, {6},
    {7}, {7}, {7},
    {8}, {8}, {8},
    {9}, {9}, {9},
    {10}, {10}, {10},
    {11}, {11}, {11},
    {12}, {12}, {12},
    {13}, {13}, {13},
    {}, {}, {},

  % k = 2
    {2}, {1}, {1},
    {3}, {2}, {2},
    {4}, {3}, {3},
    {5}, {4}, {4},
    {6}, {5}, {5},
    {7}, {6}, {6},
    {8}, {7}, {7},
    {9}, {8}, {8},
    {10}, {9}, {9},
    {11}, {10}, {10},
    {12}, {11}, {11},
    {13}, {12}, {12},
    {}, {13}, {13}
]);
